container_length = 3000;
container_width = 2400;
container_height = 1000;
n = 6;
boxes = [|300, 300, 300, 27
         |400, 400, 200, 25
         |1000, 350, 225, 9
         |500, 500, 275, 19
         |700, 250, 225, 13
         |800, 300, 250, 7|];
